0 0 0 0
0 1 0 0
0 2 1 0
0 3 1 0
0 4 0 2
0 5 0 2
0 6 2 2
0 7 0 4
0 8 1 9
0 9 1 2
0 10 0 5
0 11 0 9
0 12 0 12
0 13 0 9
0 14 0 12
0 15 0 16
0 16 0 5
0 17 0 5
0 18 0 12
0 19 0 16
0 20 2 5
0 21 1 14
0 22 0 16
0 23 1 19
0 24 0 13
0 25 0 23
0 26 0 19
0 27 0 16
0 28 0 25
0 29 0 23
0 30 0 23
0 31 0 28
